DIMENSION: 6
EDGE_WEIGHT_TYPE: EXPLICIT
EDGE_WEIGHT_FORMAT: FULL_MATRIX
EDGE_WEIGHT_SECTION:
32767 67 2 28 32767 92 
67 32767 32767 32767 32767 83 
2 32767 32767 9 60 32767 
28 32767 9 32767 1 25 
32767 32767 60 1 32767 99 
92 83 32767 25 99 32767 
EOF